
Log started (V11.0.0) Sat May 17 03:41:58 2008

Tried aggregator 1 time.
Reduced MIP has 510 rows, 5001 columns, and 10010 nonzeros.
Presolve time =    0.03 sec.
Clique table members: 500.
MIP emphasis: balance optimality and feasibility.
MIP search method: dynamic search.
Parallel mode: none, using 1 thread.
Root relaxation solution time =    0.17 sec.

        Nodes                                         Cuts/
   Node  Left     Objective  IInf  Best Integer     Best Node    ItCnt     Gap

*     0+    0                        55001.0000     5072.8000      559   90.78%
*     0+    0                         5095.0000     5072.8000      559    0.44%
      0     0     5073.0000    18     5095.0000      Fract: 6      577    0.43%
*     0+    0                         5089.0000     5073.0000      577    0.31%
      0     0     5073.1020    21     5089.0000     Covers: 1      713    0.31%
      0     0     5073.1563    23     5089.0000       Cuts: 4      755    0.31%
      0     0     5073.1836    27     5089.0000       Cuts: 6      787    0.31%
*     0+    0                         5086.0000     5073.1836      787    0.25%
*     0+    0                         5085.0000     5073.1836      787    0.23%
      0     2     5074.0000    24     5085.0000     5073.1836      787    0.23%
*    60+   58                         5084.0000     5074.0000     1988    0.20%
    100    96     5074.0000    15     5084.0000     5074.0000     2965    0.20%
*   200+  181                         5083.0000     5074.0000     6532    0.18%
    200   183     5075.0000    17     5083.0000     5074.0000     6532    0.18%
    300   245     5075.0000    21     5083.0000     5074.0000    13026    0.18%
    400   319     5076.4570    21     5083.0000     5074.0000    20457    0.18%
    500   389     5076.0000    15     5083.0000     5074.0000    30211    0.18%
*   531+  276                         5082.0000     5074.0000    33272    0.16%
*   531+  184                         5081.0000     5074.0000    33272    0.14%
*   531+  122                         5079.0000     5074.0000    33272    0.10%
    600   148     5075.0000    19     5079.0000     5074.0000    34463    0.10%
    700   115     5078.0000    20     5079.0000     5074.0000    39405    0.10%
*   731+   99                         5078.0000     5074.0000    40150    0.08%
*   731+   90                         5077.0000     5074.0000    40150    0.06%
    800   148     5075.0000    18     5077.0000     5074.0000    42505    0.06%
    900   235     5076.0000    14     5077.0000     5074.0000    45769    0.06%
   1000   329     5076.0000    16     5077.0000     5074.0000    49723    0.06%
Elapsed time =  28.13 sec. (tree size =  0.57 MB, solutions = 12)
   1100   421     5076.0000    13     5077.0000     5074.0000    53365    0.06%
   1200   503     5076.0000    15     5077.0000     5074.0000    61743    0.06%
   1300   567     5076.0000    16     5077.0000     5074.0000    71018    0.06%
*  1317+  168                         5076.0000     5074.0000    73250    0.04%
   1400   246     5074.0000    22     5076.0000     5074.0000    75561    0.04%
   1500   302     5075.0000    20     5076.0000     5074.0000    79493    0.04%
   1600   372     5075.0000    20     5076.0000     5074.0000    83445    0.04%
   1700   453     5074.0000    24     5076.0000     5074.0000    86472    0.04%
   1800   552     5074.0000    14     5076.0000     5074.0000    89038    0.04%
   1900   640    infeasible           5076.0000     5074.0000    92204    0.04%
*  1931+  234                         5075.0000     5074.0000    94010    0.02%
   2000   281     5074.0000    31     5075.0000     5074.0000    97497    0.02%
Elapsed time =  47.39 sec. (tree size =  0.42 MB, solutions = 14)
   2100   353     5074.0000    29     5075.0000     5074.0000   100987    0.02%
   2200   427     5074.0000    19     5075.0000     5074.0000   104873    0.02%
   2300   508     5074.0000    24     5075.0000     5074.0000   110051    0.02%
   2400   592     5074.0000    28     5075.0000     5074.0000   114465    0.02%
   2500   661     5074.0000    32     5075.0000     5074.0000   120286    0.02%
   2600   724     5074.0000    34     5075.0000     5074.0000   126396    0.02%
   2700   802     5074.0000    32     5075.0000     5074.0000   132106    0.02%
   2800   876     5074.0000    42     5075.0000     5074.0000   137451    0.02%
   2900   906    infeasible           5075.0000     5074.0000   146911    0.02%
   3000   957    infeasible           5075.0000     5074.0000   155735    0.02%
Elapsed time =  72.61 sec. (tree size =  1.41 MB, solutions = 14)
   3100  1005     5074.0000    20     5075.0000     5074.0000   167621    0.02%
   3200  1054     5074.0000    37     5075.0000     5074.0000   178236    0.02%
   3300  1084    infeasible           5075.0000     5074.0000   190165    0.02%
   3400  1148     5074.0000    41     5075.0000     5074.0000   198183    0.02%
   3500  1174     5074.0000    38     5075.0000     5074.0000   213000    0.02%
   3600  1232     5074.0000    36     5075.0000     5074.0000   221926    0.02%
   3700  1304     5074.0000    31     5075.0000     5074.0000   227732    0.02%
   3800  1354     5074.0000    37     5075.0000     5074.0000   235125    0.02%
   3900  1366     5074.0000    44     5075.0000     5074.0000   252160    0.02%
   4000  1414     5074.0000    56     5075.0000     5074.0000   266744    0.02%
Elapsed time = 133.09 sec. (tree size =  2.12 MB, solutions = 14)
   4100  1484     5074.0000    20     5075.0000     5074.0000   275643    0.02%
*  4137     0      integral     0     5074.0000     5074.0000   279229    0.00%

Cover cuts applied:  561
Mixed integer rounding cuts applied:  3
Gomory fractional cuts applied:  3

Solution pool: 15 solutions saved.

MIP - Integer optimal solution:  Objective = 5.0740000000e+003
Solution time =  142.42 sec.  Iterations = 279229  Nodes = 4138


Incumbent solution
Variable Name           Solution Value
Cmax                       5074.000000
X_1_2                         1.000000
X_2_6                         1.000000
X_3_2                         1.000000
X_4_9                         1.000000
X_5_7                         1.000000
X_6_9                         1.000000
X_7_7                         1.000000
X_8_5                         1.000000
X_9_6                         1.000000
X_10_10                       1.000000
X_11_4                        1.000000
X_12_2                        1.000000
X_13_8                        1.000000
X_14_7                        1.000000
X_15_9                        1.000000
X_16_9                        1.000000
X_17_4                        1.000000
X_18_10                       1.000000
X_19_2                        1.000000
X_20_5                        1.000000
X_21_8                        1.000000
X_21_10                       0.000000
X_22_2                        1.000000
X_23_10                       1.000000
X_24_5                        1.000000
X_25_5                        1.000000
X_26_1                        1.000000
X_27_7                        1.000000
X_28_8                        1.000000
X_29_3                        1.000000
X_30_7                        1.000000
X_31_2                        1.000000
X_32_4                        1.000000
X_33_1                        1.000000
X_34_5                        1.000000
X_35_6                        1.000000
X_36_10                       1.000000
X_37_9                        1.000000
X_38_7                        1.000000
X_39_7                        1.000000
X_40_4                        1.000000
X_41_5                        1.000000
X_42_5                        1.000000
X_43_2                        1.000000
X_44_7                        1.000000
X_45_8                        1.000000
X_46_5                        1.000000
X_47_1                        1.000000
X_48_1                        1.000000
X_49_3                        1.000000
X_50_8                        1.000000
X_51_1                        1.000000
X_52_3                        1.000000
X_53_10                       1.000000
X_54_6                        1.000000
X_55_5                        1.000000
X_56_8                        1.000000
X_57_2                        1.000000
X_58_9                        1.000000
X_59_3                        1.000000
X_60_10                       1.000000
X_61_4                        1.000000
X_62_1                        1.000000
X_63_2                        1.000000
X_64_1                        1.000000
X_65_3                        1.000000
X_66_3                        1.000000
X_67_5                        1.000000
X_68_1                        1.000000
X_69_2                        1.000000
X_70_7                        1.000000
X_71_7                        1.000000
X_72_6                        1.000000
X_73_6                        1.000000
X_74_3                        1.000000
X_75_8                        1.000000
X_76_9                        1.000000
X_77_6                        1.000000
X_78_5                        1.000000
X_79_6                        1.000000
X_80_2                        1.000000
X_81_9                        1.000000
X_82_9                        1.000000
X_83_4                        1.000000
X_84_3                        1.000000
X_85_8                        1.000000
X_86_6                        1.000000
X_87_7                        1.000000
X_88_2                        1.000000
X_89_7                        1.000000
X_90_8                        1.000000
X_91_9                        1.000000
X_92_2                        1.000000
X_93_9                        1.000000
X_94_10                       1.000000
X_95_7                        1.000000
X_96_5                        1.000000
X_97_4                        1.000000
X_97_10                       0.000000
X_98_6                        1.000000
X_99_9                        1.000000
X_100_9                       1.000000
X_101_8                       1.000000
X_102_10                      1.000000
X_103_9                       1.000000
X_104_4                       1.000000
X_105_9                       1.000000
X_106_5                       1.000000
X_107_10                      1.000000
X_108_1                       1.000000
X_109_9                       1.000000
X_110_9                       1.000000
X_111_4                       1.000000
X_112_1                       1.000000
X_113_10                      1.000000
X_114_4                       1.000000
X_115_6                       1.000000
X_116_8                       1.000000
X_117_10                      1.000000
X_118_7                       1.000000
X_119_8                       1.000000
X_120_9                       1.000000
X_121_5                       1.000000
X_122_10                      1.000000
X_123_2                       1.000000
X_124_10                      1.000000
X_125_3                       1.000000
X_126_10                      1.000000
X_127_5                       1.000000
X_128_9                       1.000000
X_129_5                       1.000000
X_130_1                       1.000000
X_131_3                       1.000000
X_132_4                       1.000000
X_133_7                       1.000000
X_134_2                       1.000000
X_135_3                       1.000000
X_136_3                       1.000000
X_137_6                       1.000000
X_138_10                      1.000000
X_139_6                       1.000000
X_140_1                       1.000000
X_141_9                       1.000000
X_142_2                       1.000000
X_143_6                       1.000000
X_144_8                       1.000000
X_145_1                       1.000000
X_146_1                       1.000000
X_147_9                       1.000000
X_148_1                       1.000000
X_149_6                       1.000000
X_150_8                       1.000000
X_151_6                       1.000000
X_152_10                      1.000000
X_153_9                       1.000000
X_154_6                       1.000000
X_155_1                       1.000000
X_156_5                       1.000000
X_157_1                       1.000000
X_158_7                       1.000000
X_159_8                       1.000000
X_160_10                      1.000000
X_161_10                      1.000000
X_162_8                       1.000000
X_163_7                       1.000000
X_164_5                       1.000000
X_165_9                       1.000000
X_166_6                       1.000000
X_167_8                       1.000000
X_168_4                       1.000000
X_169_10                      1.000000
X_170_4                       1.000000
X_171_5                       1.000000
X_172_9                       1.000000
X_173_5                       1.000000
X_174_5                       1.000000
X_175_10                      1.000000
X_176_4                       1.000000
X_177_3                       1.000000
X_178_9                       1.000000
X_179_7                       1.000000
X_180_2                       1.000000
X_181_3                       1.000000
X_182_7                       1.000000
X_183_2                       1.000000
X_184_10                      1.000000
X_185_3                       0.000000
X_185_4                       1.000000
X_186_6                       1.000000
X_187_8                       1.000000
X_188_2                       1.000000
X_189_3                       1.000000
X_190_3                       1.000000
X_191_10                      1.000000
X_192_6                       1.000000
X_193_2                       1.000000
X_194_6                       1.000000
X_195_4                       1.000000
X_196_2                       1.000000
X_197_6                       1.000000
X_198_4                       1.000000
X_199_4                       1.000000
X_200_6                       1.000000
X_201_3                       1.000000
X_202_3                       1.000000
X_203_2                       1.000000
X_204_6                       1.000000
X_205_6                       1.000000
X_206_10                      1.000000
X_207_8                       1.000000
X_208_7                       1.000000
X_209_5                       1.000000
X_210_5                       1.000000
X_211_8                       1.000000
X_212_6                       1.000000
X_213_3                       1.000000
X_214_1                       1.000000
X_215_8                       1.000000
X_216_10                      1.000000
X_217_7                       1.000000
X_218_1                       1.000000
X_219_7                       1.000000
X_220_4                       1.000000
X_221_10                      1.000000
X_222_8                       1.000000
X_223_5                       1.000000
X_224_5                       1.000000
X_225_1                       1.000000
X_226_8                       1.000000
X_227_1                       1.000000
X_228_7                       1.000000
X_229_8                       1.000000
X_230_4                       1.000000
X_231_7                       1.000000
X_232_10                      1.000000
X_233_10                      1.000000
X_234_2                       1.000000
X_235_10                      1.000000
X_236_10                      1.000000
X_237_7                       1.000000
X_238_7                       1.000000
X_239_10                      1.000000
X_240_2                       1.000000
X_241_9                       1.000000
X_242_8                       1.000000
X_243_9                       1.000000
X_244_6                       1.000000
X_245_7                       1.000000
X_246_7                       1.000000
X_247_9                       1.000000
X_248_4                       1.000000
X_249_2                       1.000000
X_250_5                       1.000000
X_251_7                       1.000000
X_252_8                       1.000000
X_253_3                       1.000000
X_254_5                       1.000000
X_255_2                       1.000000
X_256_5                       1.000000
X_257_1                       1.000000
X_258_5                       1.000000
X_259_1                       1.000000
X_260_5                       1.000000
X_261_4                       1.000000
X_262_3                       1.000000
X_263_10                      1.000000
X_264_5                       1.000000
X_265_1                       1.000000
X_266_4                       1.000000
X_267_6                       1.000000
X_268_3                       1.000000
X_269_7                       1.000000
X_270_10                      1.000000
X_271_2                       1.000000
X_272_2                       1.000000
X_273_7                       1.000000
X_274_2                       1.000000
X_275_6                       1.000000
X_276_2                       1.000000
X_277_4                       1.000000
X_278_3                       1.000000
X_279_4                       1.000000
X_280_9                       1.000000
X_281_7                       1.000000
X_282_8                       1.000000
X_283_10                      1.000000
X_284_3                       1.000000
X_285_7                       1.000000
X_286_3                       1.000000
X_287_7                       1.000000
X_288_3                       1.000000
X_289_1                       1.000000
X_290_4                       1.000000
X_291_8                       1.000000
X_292_1                       1.000000
X_293_5                       1.000000
X_294_4                       1.000000
X_295_8                       1.000000
X_296_3                       1.000000
X_297_7                       1.000000
X_298_7                       1.000000
X_299_8                       1.000000
X_300_6                       1.000000
X_301_5                       1.000000
X_302_3                       1.000000
X_303_5                       1.000000
X_304_1                       1.000000
X_305_10                      1.000000
X_306_6                       1.000000
X_307_3                       1.000000
X_308_3                       1.000000
X_309_8                       1.000000
X_310_7                       1.000000
X_311_8                       1.000000
X_312_1                       1.000000
X_313_7                       1.000000
X_314_10                      1.000000
X_315_7                       1.000000
X_316_9                       1.000000
X_317_1                       1.000000
X_318_9                       1.000000
X_319_6                       1.000000
X_320_9                       1.000000
X_321_9                       1.000000
X_322_8                       1.000000
X_323_6                       1.000000
X_324_4                       1.000000
X_325_5                       1.000000
X_326_4                       1.000000
X_327_1                       1.000000
X_328_10                      1.000000
X_329_8                       1.000000
X_330_9                       1.000000
X_331_6                       1.000000
X_332_2                       1.000000
X_333_4                       0.000000
X_333_10                      1.000000
X_334_1                       1.000000
X_335_1                       1.000000
X_336_9                       1.000000
X_337_8                       1.000000
X_338_4                       1.000000
X_339_9                       1.000000
X_340_8                       1.000000
X_341_7                       1.000000
X_342_4                       1.000000
X_343_3                       1.000000
X_344_1                       1.000000
X_345_4                       1.000000
X_346_2                       1.000000
X_347_6                       1.000000
X_348_3                       1.000000
X_349_3                       1.000000
X_350_1                       1.000000
X_351_1                       1.000000
X_352_4                       1.000000
X_353_6                       1.000000
X_354_8                       1.000000
X_355_10                      1.000000
X_356_1                       1.000000
X_357_4                       1.000000
X_358_5                       1.000000
X_359_10                      1.000000
X_360_6                       1.000000
X_361_8                       1.000000
X_362_1                       1.000000
X_363_5                       1.000000
X_364_3                       1.000000
X_364_4                       0.000000
X_365_6                       1.000000
X_366_8                       1.000000
X_367_10                      1.000000
X_368_7                       1.000000
X_369_8                       1.000000
X_370_10                      1.000000
X_371_3                       1.000000
X_372_9                       1.000000
X_373_9                       1.000000
X_374_9                       1.000000
X_375_6                       1.000000
X_376_6                       1.000000
X_377_5                       1.000000
X_378_1                       1.000000
X_379_9                       1.000000
X_380_3                       1.000000
X_381_9                       1.000000
X_382_1                       1.000000
X_383_10                      1.000000
X_384_2                       1.000000
X_385_10                      1.000000
X_386_3                       1.000000
X_387_8                       1.000000
X_388_1                       1.000000
X_389_3                       1.000000
X_390_4                       1.000000
X_391_7                       1.000000
X_392_1                       1.000000
X_393_10                      1.000000
X_394_1                       1.000000
X_395_4                       1.000000
X_396_3                       1.000000
X_397_5                       1.000000
X_398_6                       1.000000
X_399_2                       1.000000
X_400_9                       1.000000
X_401_1                       1.000000
X_402_1                       1.000000
X_403_9                       1.000000
X_404_8                       1.000000
X_405_8                       1.000000
X_406_7                       1.000000
X_407_3                       1.000000
X_408_5                       1.000000
X_409_3                       1.000000
X_410_6                       1.000000
X_411_6                       1.000000
X_412_1                       1.000000
X_413_6                       1.000000
X_414_1                       1.000000
X_415_2                       1.000000
X_416_2                       1.000000
X_417_2                       1.000000
X_418_1                       1.000000
X_419_5                       1.000000
X_420_3                       1.000000
X_420_8                       0.000000
X_421_2                       1.000000
X_422_6                       1.000000
X_423_1                       1.000000
X_424_2                       1.000000
X_425_3                       1.000000
X_426_9                       1.000000
X_427_4                       1.000000
X_428_4                       1.000000
X_429_9                       1.000000
X_430_8                       1.000000
X_431_7                       1.000000
X_432_10                      1.000000
X_433_4                       1.000000
X_434_4                       1.000000
X_435_10                      1.000000
X_436_6                       1.000000
X_437_7                       1.000000
X_438_2                       1.000000
X_439_7                       1.000000
X_440_4                       1.000000
X_441_4                       1.000000
X_442_5                       1.000000
X_443_6                       1.000000
X_444_5                       1.000000
X_445_5                       1.000000
X_446_10                      1.000000
X_447_10                      1.000000
X_448_2                       1.000000
X_449_10                      1.000000
X_450_4                       1.000000
X_451_6                       1.000000
X_452_3                       1.000000
X_453_2                       1.000000
X_454_1                       1.000000
X_455_3                       1.000000
X_456_6                       1.000000
X_457_3                       1.000000
X_458_2                       1.000000
X_459_9                       1.000000
X_460_2                       1.000000
X_461_5                       1.000000
X_462_4                       1.000000
X_463_8                       1.000000
X_464_7                       1.000000
X_465_1                       1.000000
X_466_5                       1.000000
X_467_4                       1.000000
X_468_9                       1.000000
X_469_7                       1.000000
X_470_9                       1.000000
X_471_4                       1.000000
X_472_3                       1.000000
X_473_5                       1.000000
X_474_9                       1.000000
X_475_8                       1.000000
X_476_5                       1.000000
X_477_7                       1.000000
X_478_2                       1.000000
X_479_7                       1.000000
X_480_3                       1.000000
X_481_3                       1.000000
X_482_2                       1.000000
X_483_2                       1.000000
X_484_5                       1.000000
X_485_2                       1.000000
X_486_4                       1.000000
X_487_6                       1.000000
X_488_8                       1.000000
X_489_8                       1.000000
X_490_4                       1.000000
X_491_9                       1.000000
X_492_4                       1.000000
X_493_8                       1.000000
X_494_3                       1.000000
X_495_2                       1.000000
X_496_4                       1.000000
X_497_5                       1.000000
X_498_10                      1.000000
X_499_2                       1.000000
X_500_8                       1.000000
All other variables in the range 1-5001 are 0.
